Function: get_partitions took 4.863739013671875e-05 seconds
Function: map_flows_partitions took 1.3589859008789062e-05 seconds
Building model with:
21 devices, 20 partitions and 20 flows
Using license file /home/anup/gurobi.lic
Academic license - for non-commercial use only
Function: MIP.add_frac_mem_var took 0.0005712509155273438 seconds
Function: MIP.add_coverage_constraints took 0.0005919933319091797 seconds
Function: MIP.add_accuracy_constraints took 0.0012505054473876953 seconds
Function: MIP.add_capacity_constraints took 0.0022344589233398438 seconds
Changed value of parameter TimeLimit to 120.0
   Prev: inf  Min: 0.0  Max: inf  Default: inf
--------------------------------------------------
Starting model update
Model update took: 0.00014853477478027344 s
--------------------------------------------------
Starting model optimize
Gurobi Optimizer version 9.0.0 build v9.0.0rc2 (linux64)
Optimize a model with 124 rows, 168 columns and 386 nonzeros
Model fingerprint: 0xbf10b472
Model has 4 general constraints
Variable types: 168 continuous, 0 integer (0 binary)
Coefficient statistics:
  Matrix range     [1e+00, 5e+00]
  Objective range  [1e+00, 1e+00]
  Bounds range     [1e+00, 3e+04]
  RHS range        [1e+00, 1e+00]

---------------------------------------------------------------------------
Multi-objectives: starting optimization with 8 objectives ... 
---------------------------------------------------------------------------

Multi-objectives: applying initial presolve ...
---------------------------------------------------------------------------

Presolve removed 62 rows and 26 columns
Presolve time: 0.00s
Presolved: 62 rows and 142 columns
---------------------------------------------------------------------------

Multi-objectives: optimize objective 1 (tot_rows_CPU) ...
---------------------------------------------------------------------------

Presolve removed 20 rows and 40 columns
Presolve time: 0.00s
Presolved: 42 rows, 102 columns, 180 nonzeros
Presolved model has 40 SOS constraint(s)
Variable types: 62 continuous, 40 integer (40 binary)

Root relaxation: objective 0.000000e+00, 22 iterations, 0.00 seconds

    Nodes    |    Current Node    |     Objective Bounds      |     Work
 Expl Unexpl |  Obj  Depth IntInf | Incumbent    BestBd   Gap | It/Node Time

*    0     0               0       0.0000000    0.00000  0.00%     -    0s

Explored 0 nodes (22 simplex iterations) in 0.00 seconds
Thread count was 8 (of 8 available processors)

Solution count 1: 0 

Optimal solution found (tolerance 1.00e-04)
Best objective 0.000000000000e+00, best bound 0.000000000000e+00, gap 0.0000%
---------------------------------------------------------------------------

Multi-objectives: optimize objective 2 (CPU_rows_load) ...
---------------------------------------------------------------------------


Loaded user MIP start with objective 0


Explored 0 nodes (0 simplex iterations) in 0.00 seconds
Thread count was 1 (of 8 available processors)

Solution count 1: 0 

Optimal solution found (tolerance 1.00e-04)
Best objective 0.000000000000e+00, best bound 0.000000000000e+00, gap 0.0000%
---------------------------------------------------------------------------

Multi-objectives: optimize objective 3 (tot_rows_P4) ...
---------------------------------------------------------------------------


Loaded user MIP start with objective 60

Presolve removed 1 rows and 0 columns
Presolve time: 0.00s
Presolved: 63 rows, 142 columns, 281 nonzeros
Presolved model has 40 SOS constraint(s)
Variable types: 102 continuous, 40 integer (40 binary)

Root relaxation: objective 6.000000e+01, 31 iterations, 0.00 seconds

    Nodes    |    Current Node    |     Objective Bounds      |     Work
 Expl Unexpl |  Obj  Depth IntInf | Incumbent    BestBd   Gap | It/Node Time

*    0     0               0      59.9999990   60.00000  0.00%     -    0s

Explored 0 nodes (31 simplex iterations) in 0.01 seconds
Thread count was 8 (of 8 available processors)

Solution count 1: 60 

Optimal solution found (tolerance 1.00e-04)
Best objective 5.999999899990e+01, best bound 5.999999899990e+01, gap 0.0000%
---------------------------------------------------------------------------

Multi-objectives: optimize objective 4 (P4_rows_load) ...
---------------------------------------------------------------------------


Loaded user MIP start with objective 60

Presolve removed 2 rows and 0 columns
Presolve time: 0.00s
Presolved: 63 rows, 142 columns, 281 nonzeros
Presolved model has 40 SOS constraint(s)
Variable types: 102 continuous, 40 integer (40 binary)

Root relaxation: cutoff, 31 iterations, 0.00 seconds

    Nodes    |    Current Node    |     Objective Bounds      |     Work
 Expl Unexpl |  Obj  Depth IntInf | Incumbent    BestBd   Gap | It/Node Time

     0     0     cutoff    0        60.00000   60.00000  0.00%     -    0s

Explored 0 nodes (31 simplex iterations) in 0.01 seconds
Thread count was 8 (of 8 available processors)

Solution count 1: 60 

Optimal solution found (tolerance 1.00e-04)
Best objective 5.999999899990e+01, best bound 5.999999899990e+01, gap 0.0000%
---------------------------------------------------------------------------

Multi-objectives: optimize objective 5 (tot_mem_CPU) ...
---------------------------------------------------------------------------


Loaded user MIP start with objective 1.69939e-06

Presolve removed 23 rows and 40 columns
Presolve time: 0.00s
Presolved: 43 rows, 102 columns, 201 nonzeros
Presolved model has 40 SOS constraint(s)
Variable types: 62 continuous, 40 integer (40 binary)

Root relaxation: objective 0.000000e+00, 22 iterations, 0.00 seconds

    Nodes    |    Current Node    |     Objective Bounds      |     Work
 Expl Unexpl |  Obj  Depth IntInf | Incumbent    BestBd   Gap | It/Node Time

*    0     0               0       0.0000000    0.00000  0.00%     -    0s

Explored 0 nodes (22 simplex iterations) in 0.01 seconds
Thread count was 8 (of 8 available processors)

Solution count 1: 0 

Optimal solution found (tolerance 1.00e-04)
Best objective 0.000000000000e+00, best bound 0.000000000000e+00, gap 0.0000%
---------------------------------------------------------------------------

Multi-objectives: optimize objective 6 (CPU_load_mem) ...
---------------------------------------------------------------------------


Loaded user MIP start with objective 0


Explored 0 nodes (0 simplex iterations) in 0.01 seconds
Thread count was 1 (of 8 available processors)

Solution count 1: 0 

Optimal solution found (tolerance 1.00e-04)
Best objective 0.000000000000e+00, best bound 0.000000000000e+00, gap 0.0000%
---------------------------------------------------------------------------

Multi-objectives: optimize objective 7 (tot_mem_P4) ...
---------------------------------------------------------------------------


Loaded user MIP start with objective 101.953

Presolve added 15 rows and 0 columns
Presolve removed 0 rows and 21 columns
Presolve time: 0.00s
Presolved: 83 rows, 121 columns, 301 nonzeros
Variable types: 81 continuous, 40 integer (40 binary)

Root relaxation: objective 1.019531e+02, 26 iterations, 0.00 seconds

    Nodes    |    Current Node    |     Objective Bounds      |     Work
 Expl Unexpl |  Obj  Depth IntInf | Incumbent    BestBd   Gap | It/Node Time

*    0     0               0     101.9530850  101.95308  0.00%     -    0s

Explored 0 nodes (26 simplex iterations) in 0.02 seconds
Thread count was 8 (of 8 available processors)

Solution count 2: 101.953 101.953 

Optimal solution found (tolerance 1.00e-04)
Best objective 1.019530849960e+02, best bound 1.019530849960e+02, gap 0.0000%
---------------------------------------------------------------------------

Multi-objectives: optimize objective 8 (P4_load_mem) ...
---------------------------------------------------------------------------


Loaded user MIP start with objective 101.953

Presolve added 14 rows and 0 columns
Presolve removed 0 rows and 21 columns
Presolve time: 0.00s
Presolved: 83 rows, 121 columns, 301 nonzeros
Variable types: 81 continuous, 40 integer (40 binary)

Explored 0 nodes (0 simplex iterations) in 0.02 seconds
Thread count was 8 (of 8 available processors)

Solution count 1: 101.953 

Optimal solution found (tolerance 1.00e-04)
Best objective 1.019530849960e+02, best bound 1.019530849960e+02, gap 0.0000%

---------------------------------------------------------------------------
Multi-objectives: solved in 0.02 seconds, solution count 3

Model optimize took: 0.01728963851928711 seconds
--------------------------------------------------

Solution quality statistics for model UnivmonGreedyRows :
  Maximum violation:
    Bound       : 0.00000000e+00
    Constraint  : 3.92376399e-07 (cov_0_0)
    Integrality : 0.00000000e+00

Sketch (0) (cm: eps0: 0.00625, del0: 0.05, min_mem: 1.69921875)
Par: 1, Rows: 3
(1.000,20)    (0.000,0)    (0.000,1)    
Total frac: 1.000

Sketch (1) (cm: eps0: 0.00625, del0: 0.05, min_mem: 1.69921875)
Par: 1, Rows: 3
(0.000,2)    (0.000,1)    (1.000,20)    
Total frac: 1.000

Sketch (2) (cm: eps0: 0.00625, del0: 0.05, min_mem: 1.69921875)
Par: 1, Rows: 3
(0.000,2)    (0.000,3)    (1.000,20)    
Total frac: 1.000

Sketch (3) (cm: eps0: 0.00625, del0: 0.05, min_mem: 1.69921875)
Par: 1, Rows: 3
(1.000,20)    (0.000,3)    (0.000,4)    
Total frac: 1.000

Sketch (4) (cm: eps0: 0.00625, del0: 0.05, min_mem: 1.69921875)
Par: 1, Rows: 3
(0.000,4)    (1.000,20)    (0.000,5)    
Total frac: 1.000

Sketch (5) (cm: eps0: 0.00625, del0: 0.05, min_mem: 1.69921875)
Par: 1, Rows: 3
(0.000,5)    (1.000,20)    (0.000,6)    
Total frac: 1.000

Sketch (6) (cm: eps0: 0.00625, del0: 0.05, min_mem: 1.69921875)
Par: 1, Rows: 3
(0.000,6)    (0.000,7)    (1.000,20)    
Total frac: 1.000

Sketch (7) (cm: eps0: 0.00625, del0: 0.05, min_mem: 1.69921875)
Par: 1, Rows: 3
(0.000,7)    (1.000,20)    (0.000,8)    
Total frac: 1.000

Sketch (8) (cm: eps0: 0.00625, del0: 0.05, min_mem: 1.69921875)
Par: 1, Rows: 3
(0.000,9)    (1.000,20)    (0.000,8)    
Total frac: 1.000

Sketch (9) (cm: eps0: 0.00625, del0: 0.05, min_mem: 1.69921875)
Par: 1, Rows: 3
(1.000,20)    (0.000,10)    (0.000,9)    
Total frac: 1.000

Sketch (10) (cm: eps0: 0.00625, del0: 0.05, min_mem: 1.69921875)
Par: 1, Rows: 3
(0.000,11)    (1.000,20)    (0.000,10)    
Total frac: 1.000

Sketch (11) (cm: eps0: 0.00625, del0: 0.05, min_mem: 1.69921875)
Par: 1, Rows: 3
(0.000,11)    (0.000,12)    (1.000,20)    
Total frac: 1.000

Sketch (12) (cm: eps0: 0.00625, del0: 0.05, min_mem: 1.69921875)
Par: 1, Rows: 3
(0.000,12)    (1.000,20)    (0.000,13)    
Total frac: 1.000

Sketch (13) (cm: eps0: 0.00625, del0: 0.05, min_mem: 1.69921875)
Par: 1, Rows: 3
(0.000,13)    (0.000,14)    (1.000,20)    
Total frac: 1.000

Sketch (14) (cm: eps0: 0.00625, del0: 0.05, min_mem: 1.69921875)
Par: 1, Rows: 3
(0.000,14)    (0.000,15)    (1.000,20)    
Total frac: 1.000

Sketch (15) (cm: eps0: 0.00625, del0: 0.05, min_mem: 1.69921875)
Par: 1, Rows: 3
(0.000,16)    (0.000,15)    (1.000,20)    
Total frac: 1.000

Sketch (16) (cm: eps0: 0.00625, del0: 0.05, min_mem: 1.69921875)
Par: 1, Rows: 3
(0.000,16)    (0.000,17)    (1.000,20)    
Total frac: 1.000

Sketch (17) (cm: eps0: 0.00625, del0: 0.05, min_mem: 1.69921875)
Par: 1, Rows: 3
(1.000,20)    (0.000,18)    (0.000,17)    
Total frac: 1.000

Sketch (18) (cm: eps0: 0.00625, del0: 0.05, min_mem: 1.69921875)
Par: 1, Rows: 3
(0.000,19)    (1.000,20)    (0.000,18)    
Total frac: 1.000

Sketch (19) (cm: eps0: 0.00625, del0: 0.05, min_mem: 1.69921875)
Par: 1, Rows: 3
(0.000,19)    (1.000,20)    (0.000,0)    
Total frac: 1.000

Device (0) CPU_0:
Rows total: 0.0
Mem total: 0.0

Device (1) CPU_1:
Rows total: 0.0
Mem total: 0.0

Device (2) CPU_2:
Rows total: 0.0
Mem total: 0.0

Device (3) CPU_3:
Rows total: 0.0
Mem total: 0.0

Device (4) CPU_4:
Rows total: 0.0
Mem total: 0.0

Device (5) CPU_5:
Rows total: 0.0
Mem total: 0.0

Device (6) CPU_6:
Rows total: 0.0
Mem total: 0.0

Device (7) CPU_7:
Rows total: 0.0
Mem total: 0.0

Device (8) CPU_8:
Rows total: 0.0
Mem total: 0.0

Device (9) CPU_9:
Rows total: 0.0
Mem total: 0.0

Device (10) CPU_10:
Rows total: 0.0
Mem total: 0.0

Device (11) CPU_11:
Rows total: 0.0
Mem total: 0.0

Device (12) CPU_12:
Rows total: 0.0
Mem total: 0.0

Device (13) CPU_13:
Rows total: 0.0
Mem total: 0.0

Device (14) CPU_14:
Rows total: 0.0
Mem total: 0.0

Device (15) CPU_15:
Rows total: 0.0
Mem total: 0.0

Device (16) CPU_16:
Rows total: 0.0
Mem total: 0.0

Device (17) CPU_17:
Rows total: 0.0
Mem total: 0.0

Device (18) CPU_18:
Rows total: 0.0
Mem total: 0.0

Device (19) CPU_19:
Rows total: 0.0
Mem total: 0.0

Device (20) P4_1:
Rows total: 59.999976457416075
Mem total: 101.95308499599997
--------------------------------------------------
Infeasible placement
Function: MIP.solve took 0.03363037109375 seconds
Function: solve took 0.03414416313171387 seconds
